	209103.0	3000.0
	209103.0	3000.0
	219999.0	0.0


	175038.0	18000.0
	175038.0	18000.0
	189993.0	0.0


	209103.0	3000.0
	209103.0	3000.0
	219999.0	0.0


	182000.0	15000.0
	194112.0	0.0


	166037.0	27000.0
	176357.0	15000.0
	205162.0	12000.0
	219999.0	0.0


	186444.0	12000.0
	196208.0	6000.0
	219999.0	0.0


	182000.0	15000.0
	182000.0	15000.0
	209103.0	3000.0


	188273.0	0.0
	188273.0	0.0


	175038.0	18000.0
	175038.0	18000.0
	189993.0	0.0


	182000.0	15000.0
	182000.0	15000.0


